NAME          COPTPROB
OBJSENSE
  MIN
ROWS
 N  __OBJ___
 L  C180    
 L  C282    
 L  C1251   
 L  C1668   
 L  C1813   
COLUMNS
    MARKER    'MARKER'                 'INTORG'
    x282      __OBJ___  -1
    x282      C1251     1
    x282      C1668     1
    x453      __OBJ___  -1
    x453      C180      1
    x453      C1813     1
    x725      __OBJ___  -1
    x725      C180      1
    x725      C282      1
    x851      __OBJ___  -1
    x851      C282      1
    x851      C1668     1
    x1027     __OBJ___  -1
    x1027     C1251     1
    x1027     C1813     1
    MARKER    'MARKER'                 'INTEND'
RHS
    RHS       __OBJ___  701
    RHS       C180      1
    RHS       C282      1
    RHS       C1251     1
    RHS       C1668     1
    RHS       C1813     1
BOUNDS
 UP BOUND     x282      1
 UP BOUND     x453      1
 UP BOUND     x725      1
 UP BOUND     x851      1
 UP BOUND     x1027     1
ENDATA
